Normalized Data/p02_5_normalized_splitx10_0.vrp
NAME:p02_5_NORMALIZED_splitx10_
BEST_KNOWN: 0
COMMENT: 0
DIMENSION: 284
CAPACITY: 1000
EDGE_WEIGHT_FORMAT: FUNCTION
EDGE_WEIGHT_TYPE: EXACT_2D
NODE_COORD_SECTION
1 0.00000 0.00000
2 -2 42
3 -2 42
4 13 12
5 13 12
6 13 12
7 -50 -24
8 -50 -24
9 -50 -24
10 -50 -24
11 48 39
12 48 39
13 -14 29
14 -14 29
15 -14 29
16 -14 29
17 -14 29
18 -14 29
19 -27 8
20 -27 8
21 -27 8
22 -27 8
23 -27 8
24 -21 37
25 -21 37
26 -21 37
27 -21 37
28 49 -30
29 49 -30
30 19 19
31 19 19
32 19 19
33 19 19
34 19 19
35 47 13
36 47 13
37 47 13
38 47 13
39 19 46
40 19 46
41 19 46
42 19 46
43 19 46
44 19 46
45 -2 -37
46 -2 -37
47 -2 -37
48 -2 -37
49 -2 -37
50 -2 -37
51 -22 26
52 -22 26
53 43 33
54 43 33
55 43 33
56 43 33
57 43 33
58 50 -35
59 50 -35
60 50 -35
61 -50 -30
62 -50 -30
63 -50 -30
64 -50 -30
65 -8 -25
66 -8 -25
67 -8 -25
68 -8 -25
69 39 -48
70 39 -48
71 39 -48
72 39 -48
73 39 -48
74 39 -48
75 29 -31
76 29 -31
77 29 -31
78 29 -31
79 29 -31
80 -48 7
81 -48 7
82 33 50
83 33 50
84 33 50
85 33 50
86 -15 8
87 -15 8
88 -15 8
89 -15 8
90 -2 -44
91 -2 -44
92 -2 -44
93 -2 -44
94 -2 -44
95 14 -11
96 14 -11
97 14 -11
98 -39 -46
99 -39 -46
100 -10 -28
101 -10 -28
102 -10 -28
103 -10 -28
104 -40 6
105 -40 6
106 -40 6
107 -3 12
108 -3 12
109 -3 12
110 -3 12
111 -3 12
112 3 -8
113 3 -8
114 3 -8
115 3 -8
116 3 -8
117 -9 43
118 -9 43
119 -9 43
120 -7 27
121 -7 27
122 -7 27
123 -7 27
124 -7 27
125 -7 27
126 17 22
127 17 22
128 17 22
129 -15 13
130 -15 13
131 27 45
132 27 45
133 -1 -42
134 -1 -42
135 -1 -42
136 -1 -42
137 -1 -42
138 -1 -42
139 -45 -12
140 -45 -12
141 -45 -12
142 48 -5
143 48 -5
144 48 -5
145 48 -5
146 -42 27
147 -42 27
148 -42 27
149 -42 27
150 -42 27
151 -42 27
152 -10 -17
153 -10 -17
154 -10 -17
155 -10 -17
156 -10 -17
157 -10 -17
158 -10 -17
159 -3 3
160 -3 3
161 -3 3
162 28 -41
163 28 -41
164 -22 31
165 -22 31
166 -22 31
167 6 -18
168 6 -18
169 6 -18
170 6 -18
171 -17 10
172 -17 10
173 -17 10
174 -17 10
175 -17 10
176 -31 -34
177 -31 -34
178 -31 -34
179 -31 -34
180 -31 -34
181 -12 5
182 -12 5
183 -12 5
184 -12 5
185 -12 5
186 -12 5
187 -12 5
188 -20 -20
189 -20 -20
190 -20 -20
191 -47 -43
192 -47 -43
193 -47 -43
194 -47 -43
195 40 -49
196 40 -49
197 40 -49
198 40 -49
199 11 -14
200 11 -14
201 11 -14
202 11 -14
203 11 -14
204 14 45
205 14 45
206 14 45
207 14 45
208 -50 -48
209 -50 -48
210 8 -24
211 8 -24
212 -9 8
213 -9 8
214 -9 8
215 -9 8
216 -9 8
217 -8 31
218 21 -30
219 21 -30
220 21 -30
221 21 -30
222 -10 35
223 -10 35
224 -10 35
225 -10 35
226 -2 4
227 -2 4
228 -2 4
229 28 -16
230 28 -16
231 28 -16
232 -5 8
233 -5 8
234 -5 8
235 20 19
236 20 19
237 -41 13
238 -41 13
239 -41 13
240 -41 13
241 -43 33
242 -43 33
243 -37 -44
244 -37 -44
245 -37 -44
246 -37 -44
247 -37 -44
248 -37 -44
249 9 40
250 9 40
251 9 40
252 9 40
253 -44 47
254 -44 47
255 26 -21
256 26 -21
257 26 -21
258 16 47
259 16 47
260 -48 26
261 -48 26
262 -48 26
263 -18 -26
264 -18 -26
265 -18 -26
266 -18 -26
267 -32 -46
268 -32 -46
269 -32 -46
270 -32 -46
271 -32 -46
272 -19 -5
273 -19 -5
274 -17 -5
275 -17 -5
276 -17 -5
277 8 -14
278 8 -14
279 8 -14
280 8 -14
281 8 -14
282 -1 -50
283 -1 -50
284 -1 -50
DEMAND_SECTION
1 0
2 200
3 50
4 200
5 200
6 50
7 200
8 100
9 10
10 10
11 100
12 50
13 200
14 50
15 10
16 10
17 10
18 10
19 200
20 100
21 50
22 10
23 10
24 200
25 100
26 50
27 10
28 200
29 50
30 100
31 50
32 10
33 10
34 10
35 200
36 200
37 10
38 10
39 200
40 100
41 50
42 10
43 10
44 10
45 200
46 100
47 10
48 10
49 10
50 10
51 200
52 200
53 200
54 100
55 50
56 10
57 10
58 100
59 10
60 10
61 100
62 10
63 10
64 10
65 200
66 10
67 10
68 10
69 200
70 100
71 10
72 10
73 10
74 10
75 200
76 100
77 50
78 10
79 10
80 200
81 200
82 200
83 200
84 10
85 10
86 200
87 200
88 50
89 10
90 200
91 200
92 10
93 10
94 10
95 100
96 10
97 10
98 200
99 200
100 200
101 200
102 50
103 10
104 200
105 10
106 10
107 100
108 50
109 10
110 10
111 10
112 100
113 50
114 10
115 10
116 10
117 200
118 100
119 50
120 200
121 50
122 10
123 10
124 10
125 10
126 200
127 50
128 10
129 100
130 50
131 200
132 50
133 200
134 100
135 50
136 10
137 10
138 10
139 200
140 100
141 50
142 200
143 200
144 10
145 10
146 200
147 50
148 10
149 10
150 10
151 10
152 200
153 100
154 50
155 10
156 10
157 10
158 10
159 200
160 200
161 50
162 200
163 200
164 200
165 100
166 50
167 100
168 10
169 10
170 10
171 200
172 10
173 10
174 10
175 10
176 200
177 200
178 50
179 10
180 10
181 200
182 100
183 50
184 10
185 10
186 10
187 10
188 200
189 50
190 10
191 200
192 200
193 10
194 10
195 200
196 200
197 10
198 10
199 200
200 10
201 10
202 10
203 10
204 200
205 200
206 10
207 10
208 200
209 50
210 200
211 200
212 200
213 100
214 10
215 10
216 10
217 200
218 200
219 10
220 10
221 10
222 100
223 50
224 10
225 10
226 200
227 200
228 50
229 200
230 200
231 50
232 200
233 200
234 50
235 100
236 50
237 200
238 200
239 10
240 10
241 100
242 50
243 100
244 50
245 10
246 10
247 10
248 10
249 200
250 200
251 50
252 10
253 200
254 200
255 200
256 200
257 100
258 200
259 10
260 200
261 100
262 10
263 100
264 10
265 10
266 10
267 200
268 50
269 10
270 10
271 10
272 200
273 200
274 200
275 200
276 50
277 100
278 10
279 10
280 10
281 10
282 200
283 10
284 10
DEPOT_SECTION
1
-1
EOF