Normalized Data/p02_5_normalized_splitx10_0.sol
283 -3 4 5 32 33 30 31 29 234 235 127 125 -21 18 19 22 20 236 239 237 238 273 -25 26 24 23 164 165 163 51 129 -34 35 36 37 11 10 52 53 54 55 56 -41 38 39 40 42 43 257 258 205 204 203 -44 46 49 48 90 92 91 93 89 283 282 281 135 133 136 -47 45 132 134 137 209 210 167 166 168 169 279 278 280 277 112 113 -50 252 253 240 241 147 145 148 -65 64 66 67 101 99 102 100 157 153 155 154 151 -75 74 77 76 78 161 162 219 220 218 217 -96 95 94 194 197 196 195 73 72 68 69 70 71 276 115 114 -104 105 103 80 79 259 260 261 150 149 146 -108 109 106 107 110 233 231 232 213 214 215 212 211 -111 159 160 158 227 225 226 -121 122 124 123 119 120 216 12 16 15 14 17 13 128 181 -126 131 130 84 81 82 83 206 251 248 250 -139 140 138 8 6 9 7 60 61 62 63 176 -141 143 144 142 27 28 58 57 59 255 -156 152 187 272 271 275 274 -171 173 172 174 170 88 85 86 87 180 182 185 186 183 184 -177 179 178 175 208 207 193 191 192 190 188 189 -202 201 198 200 199 254 256 228 230 229 -224 223 222 221 116 117 118 2 1 249 -243 245 247 246 244 242 98 97 269 268 267 266 270 264 262 263 265 0 





OBJ=
2294.333
BEST_KNOWN=
0.000